
Gurobi 12.0.2 (win64) logging started Mon Nov  3 09:49:59 2025

Set parameter LogFile to value "resultados DATA_1_n10m05b2d1\instancia_1_log.txt"
Set parameter TimeLimit to value 1800
Gurobi Optimizer version 12.0.2 build v12.0.2rc0 (win64 - Windows 10.0 (19045.2))

CPU model: Intel(R) Core(TM) i5-6300U CPU @ 2.40GHz, instruction set [SSE2|AVX|AVX2]
Thread count: 2 physical cores, 4 logical processors, using up to 4 threads

Non-default parameters:
TimeLimit  1800

Optimize a model with 805 rows, 2448 columns and 33080 nonzeros
Model fingerprint: 0xd736ed86
Variable types: 0 continuous, 2448 integer (2448 binary)
Coefficient statistics:
  Matrix range     [1e+00, 1e+00]
  Objective range  [8e-03, 2e-02]
  Bounds range     [1e+00, 1e+00]
  RHS range        [1e+00, 4e+01]
Found heuristic solution: objective 0.8640000
Presolve removed 0 rows and 375 columns
Presolve time: 0.36s
Presolved: 805 rows, 2073 columns, 27577 nonzeros
Found heuristic solution: objective 0.8400000
Variable types: 0 continuous, 2073 integer (2073 binary)

Root simplex log...

Iteration    Objective       Primal Inf.    Dual Inf.      Time
    8284    9.9921840e-01   1.344429e+05   0.000000e+00      5s
   11976    9.9600000e-01   0.000000e+00   0.000000e+00      7s

Root relaxation: objective 9.960000e-01, 11976 iterations, 6.21 seconds (2.97 work units)

    Nodes    |    Current Node    |     Objective Bounds      |     Work
 Expl Unexpl |  Obj  Depth IntInf | Incumbent    BestBd   Gap | It/Node Time

     0     0    0.99600    0   14    0.86400    0.99600  15.3%     -    8s
H    0     0                       0.9440000    0.99600  5.51%     -    8s
H    0     0                       0.9620000    0.99600  3.53%     -    8s
H    0     0                       0.9920000    0.99600  0.40%     -    8s
     0     0    0.99600    0   24    0.99200    0.99600  0.40%     -    8s
     0     0    0.99600    0   30    0.99200    0.99600  0.40%     -    9s
     0     0    0.99600    0   14    0.99200    0.99600  0.40%     -   11s
     0     0    0.99600    0   40    0.99200    0.99600  0.40%     -   11s
     0     0    0.99600    0   15    0.99200    0.99600  0.40%     -   13s
     0     0    0.99600    0   18    0.99200    0.99600  0.40%     -   14s
     0     0    0.99600    0   17    0.99200    0.99600  0.40%     -   15s
     0     0    0.99600    0   15    0.99200    0.99600  0.40%     -   16s
     0     2    0.99600    0   14    0.99200    0.99600  0.40%     -   18s
     1     4    0.99600    1  559    0.99200    0.99600  0.40%  4115   20s
     5    14    0.99600    3  564    0.99200    0.99600  0.40%  1798   29s
    13    28    0.99600    6   21    0.99200    0.99600  0.40%  2039   42s
